\ENCODING=ISO-8859-1
\Problem name: IloCplex

Minimize
 obj: 800 y_0 + 800 y_1 + 800 y_2 + 800 y_3 + 800 y_4 + 800 y_5 + 800 y_6
      + 800 y_7 + 800 y_8 + 800 y_9 + 800 y_10 + 800 y_11 + 800 y_12 + 800 y_13
      + 800 y_14 + 800 y_15 + 800 y_16 + 800 y_17 + 800 y_18 + 800 y_19
      + 800 y_20 + 800 y_21 + 800 y_22 + 800 y_23 + 800 y_24 + 800 y_25
      + 800 y_26 + 800 y_27 + 800 y_28 + 800 y_29 + 800 y_30 + 800 y_31
      + 800 y_32 + 800 y_33 + 800 y_34 + 800 y_35 + 800 y_36 + 800 y_37
      + 800 y_38 + 800 y_39 + 800 y_40 + 800 y_41 + 800 y_42 + 800 y_43
      + 800 y_44 + 800 y_45 + 800 y_46 + 800 y_47 + 800 y_48 + 800 y_49
      + 800 y_50 + 800 y_51 + 800 y_52 + 800 y_53 + 800 y_54 + 800 y_55
      + 800 y_56 + 800 y_57 + 800 y_58 + 800 y_59 + 800 y_60 + 800 y_61
      + 800 y_62 + 800 y_63 + 800 y_64 + 800 y_65 + 800 y_66 + 800 y_67
      + 800 y_68 + 800 y_69 + 800 y_70 + 800 y_71 + 800 y_72 + 800 y_73
      + 800 y_74 + 800 y_75 + 800 y_76 + 800 y_77 + 800 y_78 + 800 y_79
      + 800 y_80 + 800 y_81 + 800 y_82 + 800 y_83 + 800 y_84 + 800 y_85
      + 800 y_86 + 800 y_87 + 800 y_88 + 800 y_89 + 800 y_90 + 800 y_91
      + 800 y_92 + 800 y_93 + 800 y_94
Subject To
 cover_lg_0:   y_0 + x_0  = 1
 cover_lg_1:   y_1 + x_0  = 1
 cover_lg_2:   y_2 + x_0  = 1
 cover_lg_3:   y_3 + x_0  = 1
 cover_lg_4:   y_4 + x_0  = 1
 cover_lg_5:   y_5 + x_0  = 1
 cover_lg_6:   y_6 + x_0  = 1
 cover_lg_7:   y_7 + x_0  = 1
 cover_lg_8:   y_8 + x_1  = 1
 cover_lg_9:   y_9 + x_1  = 1
 cover_lg_10:  y_10 + x_1  = 1
 cover_lg_11:  y_11 + x_1  = 1
 cover_lg_12:  y_12 + x_1  = 1
 cover_lg_13:  y_13 + x_1  = 1
 cover_lg_14:  y_14 + x_2  = 1
 cover_lg_15:  y_15 + x_2  = 1
 cover_lg_16:  y_16 + x_2  = 1
 cover_lg_17:  y_17 + x_2  = 1
 cover_lg_18:  y_18 + x_2  = 1
 cover_lg_19:  y_19 + x_2  = 1
 cover_lg_20:  y_20 + x_2  = 1
 cover_lg_21:  y_21 + x_2  = 1
 cover_lg_22:  y_22 + x_2  = 1
 cover_lg_23:  y_23 + x_3  = 1
 cover_lg_24:  y_24 + x_3  = 1
 cover_lg_25:  y_25 + x_3  = 1
 cover_lg_26:  y_26 + x_3  = 1
 cover_lg_27:  y_27 + x_3  = 1
 cover_lg_28:  y_28 + x_3  = 1
 cover_lg_29:  y_29 + x_3  = 1
 cover_lg_30:  y_30 + x_3  = 1
 cover_lg_31:  y_31 + x_3  = 1
 cover_lg_32:  y_32 + x_3  = 1
 cover_lg_33:  y_33 + x_3  = 1
 cover_lg_34:  y_34  = 1
 cover_lg_35:  y_35  = 1
 cover_lg_36:  y_36  = 1
 cover_lg_37:  y_37  = 1
 cover_lg_38:  y_38  = 1
 cover_lg_39:  y_39  = 1
 cover_lg_40:  y_40  = 1
 cover_lg_41:  y_41  = 1
 cover_lg_42:  y_42 + x_4  = 1
 cover_lg_43:  y_43 + x_4  = 1
 cover_lg_44:  y_44 + x_4  = 1
 cover_lg_45:  y_45 + x_4  = 1
 cover_lg_46:  y_46 + x_4  = 1
 cover_lg_47:  y_47 + x_4  = 1
 cover_lg_48:  y_48 + x_4  = 1
 cover_lg_49:  y_49 + x_4  = 1
 cover_lg_50:  y_50 + x_5  = 1
 cover_lg_51:  y_51 + x_5  = 1
 cover_lg_52:  y_52 + x_5  = 1
 cover_lg_53:  y_53 + x_5  = 1
 cover_lg_54:  y_54 + x_5  = 1
 cover_lg_55:  y_55 + x_5  = 1
 cover_lg_56:  y_56 + x_5  = 1
 cover_lg_57:  y_57 + x_5  = 1
 cover_lg_58:  y_58 + x_5  = 1
 cover_lg_59:  y_59  = 1
 cover_lg_60:  y_60  = 1
 cover_lg_61:  y_61  = 1
 cover_lg_62:  y_62  = 1
 cover_lg_63:  y_63  = 1
 cover_lg_64:  y_64  = 1
 cover_lg_65:  y_65  = 1
 cover_lg_66:  y_66  = 1
 cover_lg_67:  y_67  = 1
 cover_lg_68:  y_68  = 1
 cover_lg_69:  y_69  = 1
 cover_lg_70:  y_70  = 1
 cover_lg_71:  y_71  = 1
 cover_lg_72:  y_72  = 1
 cover_lg_73:  y_73  = 1
 cover_lg_74:  y_74  = 1
 cover_lg_75:  y_75 + x_6  = 1
 cover_lg_76:  y_76 + x_6  = 1
 cover_lg_77:  y_77 + x_6  = 1
 cover_lg_78:  y_78 + x_6  = 1
 cover_lg_79:  y_79 + x_6  = 1
 cover_lg_80:  y_80 + x_6  = 1
 cover_lg_81:  y_81 + x_6  = 1
 cover_lg_82:  y_82 + x_6  = 1
 cover_lg_83:  y_83 + x_6  = 1
 cover_lg_84:  y_84  = 1
 cover_lg_85:  y_85  = 1
 cover_lg_86:  y_86  = 1
 cover_lg_87:  y_87  = 1
 cover_lg_88:  y_88  = 1
 cover_lg_89:  y_89  = 1
 cover_lg_90:  y_90 + x_7  = 1
 cover_lg_91:  y_91 + x_7  = 1
 cover_lg_92:  y_92 + x_7  = 1
 cover_lg_93:  y_93 + x_7  = 1
 cover_lg_94:  y_94 + x_7  = 1
 select_ac_0:  x_0 <= 1
 select_ac_1:  x_1 <= 1
 select_ac_2:  x_2 <= 1
 select_ac_3:  x_3 <= 1
 select_ac_4:  <= 1
 select_ac_5:  x_4 <= 1
 select_ac_6:  x_5 <= 1
 select_ac_7:  <= 1
 select_ac_8:  x_6 <= 1
 select_ac_9:  <= 1
 select_ac_10: x_7 <= 1
 select_ac_11: <= 1
Bounds
 0 <= y_0 <= 1
 0 <= y_1 <= 1
 0 <= y_2 <= 1
 0 <= y_3 <= 1
 0 <= y_4 <= 1
 0 <= y_5 <= 1
 0 <= y_6 <= 1
 0 <= y_7 <= 1
 0 <= y_8 <= 1
 0 <= y_9 <= 1
 0 <= y_10 <= 1
 0 <= y_11 <= 1
 0 <= y_12 <= 1
 0 <= y_13 <= 1
 0 <= y_14 <= 1
 0 <= y_15 <= 1
 0 <= y_16 <= 1
 0 <= y_17 <= 1
 0 <= y_18 <= 1
 0 <= y_19 <= 1
 0 <= y_20 <= 1
 0 <= y_21 <= 1
 0 <= y_22 <= 1
 0 <= y_23 <= 1
 0 <= y_24 <= 1
 0 <= y_25 <= 1
 0 <= y_26 <= 1
 0 <= y_27 <= 1
 0 <= y_28 <= 1
 0 <= y_29 <= 1
 0 <= y_30 <= 1
 0 <= y_31 <= 1
 0 <= y_32 <= 1
 0 <= y_33 <= 1
 0 <= y_34 <= 1
 0 <= y_35 <= 1
 0 <= y_36 <= 1
 0 <= y_37 <= 1
 0 <= y_38 <= 1
 0 <= y_39 <= 1
 0 <= y_40 <= 1
 0 <= y_41 <= 1
 0 <= y_42 <= 1
 0 <= y_43 <= 1
 0 <= y_44 <= 1
 0 <= y_45 <= 1
 0 <= y_46 <= 1
 0 <= y_47 <= 1
 0 <= y_48 <= 1
 0 <= y_49 <= 1
 0 <= y_50 <= 1
 0 <= y_51 <= 1
 0 <= y_52 <= 1
 0 <= y_53 <= 1
 0 <= y_54 <= 1
 0 <= y_55 <= 1
 0 <= y_56 <= 1
 0 <= y_57 <= 1
 0 <= y_58 <= 1
 0 <= y_59 <= 1
 0 <= y_60 <= 1
 0 <= y_61 <= 1
 0 <= y_62 <= 1
 0 <= y_63 <= 1
 0 <= y_64 <= 1
 0 <= y_65 <= 1
 0 <= y_66 <= 1
 0 <= y_67 <= 1
 0 <= y_68 <= 1
 0 <= y_69 <= 1
 0 <= y_70 <= 1
 0 <= y_71 <= 1
 0 <= y_72 <= 1
 0 <= y_73 <= 1
 0 <= y_74 <= 1
 0 <= y_75 <= 1
 0 <= y_76 <= 1
 0 <= y_77 <= 1
 0 <= y_78 <= 1
 0 <= y_79 <= 1
 0 <= y_80 <= 1
 0 <= y_81 <= 1
 0 <= y_82 <= 1
 0 <= y_83 <= 1
 0 <= y_84 <= 1
 0 <= y_85 <= 1
 0 <= y_86 <= 1
 0 <= y_87 <= 1
 0 <= y_88 <= 1
 0 <= y_89 <= 1
 0 <= y_90 <= 1
 0 <= y_91 <= 1
 0 <= y_92 <= 1
 0 <= y_93 <= 1
 0 <= y_94 <= 1
 0 <= x_0 <= 1
 0 <= x_1 <= 1
 0 <= x_2 <= 1
 0 <= x_3 <= 1
 0 <= x_4 <= 1
 0 <= x_5 <= 1
 0 <= x_6 <= 1
 0 <= x_7 <= 1
End
